(declare-const _a_0_ Real)
(declare-const _a_1_ Real)
(declare-const _a_2_ Real)
(declare-const _a_3_ Real)
(declare-const _a_4_ Real)
(declare-const _a_5_ Real)
(declare-const _a_6_ Real)
(declare-const _a_7_ Real)
(declare-const _a_8_ Real)
(declare-const _a_9_ Real)
(declare-const _a_10_ Real)
(declare-const _a_11_ Real)
(declare-const _a_12_ Real)
(declare-const _a_13_ Real)
(declare-const _a_14_ Real)
(assert (forall ((modified_0 Real) (shared_0 Real) (exclusive_0 Real) (total_0 Real) (invalid_0 Real) ) (=> (and (>= (+ (* 1 invalid_0) (* -1. 1) ) 0)) (and (>= (* 0 1)  0)))))
(assert (forall ((modified_0 Real) (shared_0 Real) (exclusive_0 Real) (total_0 Real) (invalid_0 Real) ) (=> (and (>= (+ (* 1 invalid_0) (* -1. 1) ) 0)) (and (>= (* 0 1)  0)))))
(assert (forall ((modified_0 Real) (shared_0 Real) (exclusive_0 Real) (total_0 Real) (invalid_0 Real) ) (=> (and (>= (+ (* 1 invalid_0) (* -1. 1) ) 0)) (and (>= (* 0 1)  0)))))
(assert (forall ((modified_0 Real) (shared_0 Real) (exclusive_0 Real) (total_0 Real) (invalid_0 Real) ) (=> (and (>= (+ (* 1 invalid_0) (* -1. 1) ) 0)) (and (>= (+ (* 1 invalid_0) (* 0 1) ) 0)))))
(assert (forall ((modified_0 Real) (shared_0 Real) (exclusive_0 Real) (total_0 Real) (invalid_0 Real) ) (=> (and (>= (+ (* 1 invalid_0) (* -1. 1) ) 0)) (and (>= (* 0 invalid_0)  0)))))
(assert (forall ((modified_0 Real) (shared_0 Real) (exclusive_0 Real) (total_0 Real) (invalid_0 Real) ) (=> (and (>= (+ (* 1 invalid_0) (* -1. 1) ) 0)) (and (>= (* 0 invalid_0)  0)))))
(assert (forall ((modified_0 Real) (shared_0 Real) (exclusive_0 Real) (total_0 Real) (invalid_0 Real) ) (=> (and (>= (+ (* 1 exclusive_0) (* 0 1) ) 0)(>= (+ (* 1 shared_0) (* 0 1) ) 0)(>= (+ (* 1 modified_0) (* 0 1) ) 0)(>= (+ (* 1 invalid_0) (* 0 1) ) 0)(>= (+ (* 1 total_0) (* -1 modified_0) (* -1 shared_0) (* -1 exclusive_0) (* -1 invalid_0) ) 0)(>= (+ (* 1 modified_0) (* 1 shared_0) (* 1 exclusive_0) (* 1 invalid_0) (* -1 total_0) ) 0)(>= (* -1. 1)  0)) (and (>= (* 1. 1)  0)))))
(assert (forall ((modified_0 Real) (shared_0 Real) (exclusive_0 Real) (total_0 Real) (invalid_0 Real) ) (=> (and (>= (+ (* 1 exclusive_0) (* 0 1) ) 0)(>= (+ (* 1 shared_0) (* 0 1) ) 0)(>= (+ (* 1 modified_0) (* 0 1) ) 0)(>= (+ (* 1 invalid_0) (* 0 1) ) 0)(>= (+ (* 1 total_0) (* -1 modified_0) (* -1 shared_0) (* -1 exclusive_0) (* -1 invalid_0) ) 0)(>= (+ (* 1 modified_0) (* 1 shared_0) (* 1 exclusive_0) (* 1 invalid_0) (* -1 total_0) ) 0)(>= (* 1. 1)  0)(>= (+ (* 1 invalid_0) (* -1. 1) ) 0)) (and (>= (* 0 1)  0)))))
(assert (forall ((modified_0 Real) (shared_0 Real) (exclusive_0 Real) (total_0 Real) (invalid_0 Real) ) (=> (and (>= (+ (* 1 exclusive_0) (* 0 1) ) 0)(>= (+ (* 1 shared_0) (* 0 1) ) 0)(>= (+ (* 1 modified_0) (* 0 1) ) 0)(>= (+ (* 1 invalid_0) (* 0 1) ) 0)(>= (+ (* 1 total_0) (* -1 modified_0) (* -1 shared_0) (* -1 exclusive_0) (* -1 invalid_0) ) 0)(>= (+ (* 1 modified_0) (* 1 shared_0) (* 1 exclusive_0) (* 1 invalid_0) (* -1 total_0) ) 0)(>= (* 1. 1)  0)(>= (+ (* 1 invalid_0) (* -1. 1) ) 0)) (and (>= (+ (* _a_0_ 1) (* _a_1_ shared_0) (* _a_2_ modified_0) (* _a_3_ invalid_0) (* _a_4_ exclusive_0) ) 0)))))
(assert (forall ((modified_0 Real) (shared_0 Real) (exclusive_0 Real) (total_0 Real) (invalid_0 Real) ) (=> (and (>= (+ (* 1 exclusive_0) (* 0 1) ) 0)(>= (+ (* 1 shared_0) (* 0 1) ) 0)(>= (+ (* 1 modified_0) (* 0 1) ) 0)(>= (+ (* 1 invalid_0) (* 0 1) ) 0)(>= (+ (* 1 total_0) (* -1 modified_0) (* -1 shared_0) (* -1 exclusive_0) (* -1 invalid_0) ) 0)(>= (+ (* 1 modified_0) (* 1 shared_0) (* 1 exclusive_0) (* 1 invalid_0) (* -1 total_0) ) 0)(>= (* 1. 1)  0)(>= (+ (* 1 invalid_0) (* -1. 1) ) 0)) (and (>= (* 0 1)  0)))))
(assert (forall ((modified_0 Real) (shared_0 Real) (exclusive_0 Real) (total_0 Real) (invalid_0 Real) ) (=> (and (>= (+ (* 1 exclusive_0) (* 0 1) ) 0)(>= (+ (* 1 shared_0) (* 0 1) ) 0)(>= (+ (* 1 modified_0) (* 0 1) ) 0)(>= (+ (* 1 invalid_0) (* 0 1) ) 0)(>= (+ (* 1 total_0) (* -1 modified_0) (* -1 shared_0) (* -1 exclusive_0) (* -1 invalid_0) ) 0)(>= (+ (* 1 modified_0) (* 1 shared_0) (* 1 exclusive_0) (* 1 invalid_0) (* -1 total_0) ) 0)(>= (* 1. 1)  0)(>= (+ (* 1 invalid_0) (* -1. 1) ) 0)) (and (>= (+ (* 1 invalid_0) (* -1. 1) ) 0)))))
(assert (forall ((modified_0 Real) (shared_0 Real) (exclusive_0 Real) (total_0 Real) (invalid_0 Real) ) (=> (and (>= (+ (* 1 exclusive_0) (* 0 1) ) 0)(>= (+ (* 1 shared_0) (* 0 1) ) 0)(>= (+ (* 1 modified_0) (* 0 1) ) 0)(>= (+ (* 1 invalid_0) (* 0 1) ) 0)(>= (+ (* 1 total_0) (* -1 modified_0) (* -1 shared_0) (* -1 exclusive_0) (* -1 invalid_0) ) 0)(>= (+ (* 1 modified_0) (* 1 shared_0) (* 1 exclusive_0) (* 1 invalid_0) (* -1 total_0) ) 0)(>= (* 1. 1)  0)(>= (+ (* 1 invalid_0) (* -1. 1) ) 0)) (and (>= (+ (* 1 total_0) (* (+ 1. (* -1 _a_0_)) 1) (* (* -1 _a_1_) shared_0) (* (* -1 _a_2_) modified_0) (* (+ -1 (* -1 _a_3_)) invalid_0) (* (* -1 _a_4_) exclusive_0) ) 0)))))
(assert (forall ((modified_0 Real) (shared_0 Real) (exclusive_0 Real) (total_0 Real) (invalid_0 Real) ) (=> (and (>= (+ (* 1 exclusive_0) (* 0 1) ) 0)(>= (+ (* 1 shared_0) (* 0 1) ) 0)(>= (+ (* 1 modified_0) (* 0 1) ) 0)(>= (+ (* 1 invalid_0) (* 0 1) ) 0)(>= (+ (* 1 total_0) (* -1 modified_0) (* -1 shared_0) (* -1 exclusive_0) (* -1 invalid_0) ) 0)(>= (+ (* 1 modified_0) (* 1 shared_0) (* 1 exclusive_0) (* 1 invalid_0) (* -1 total_0) ) 0)(>= (* 1. 1)  0)(>= (+ (* 1 invalid_0) (* -1. 1) ) 0)) (and (>= (+ (* (+ -1. _a_0_) 1) (* _a_1_ shared_0) (* _a_2_ modified_0) (* (+ 1 _a_3_) invalid_0) (* _a_4_ exclusive_0) (* -1 total_0) ) 0)))))
(assert (forall ((modified_0 Real) (shared_0 Real) (exclusive_0 Real) (total_0 Real) (invalid_0 Real) ) (=> (and (>= (+ (* 1 exclusive_0) (* 0 1) ) 0)(>= (+ (* 1 shared_0) (* 0 1) ) 0)(>= (+ (* 1 modified_0) (* 0 1) ) 0)(>= (+ (* 1 invalid_0) (* 0 1) ) 0)(>= (+ (* 1 total_0) (* -1 modified_0) (* -1 shared_0) (* -1 exclusive_0) (* -1 invalid_0) ) 0)(>= (+ (* 1 modified_0) (* 1 shared_0) (* 1 exclusive_0) (* 1 invalid_0) (* -1 total_0) ) 0)(>= (* 1. 1)  0)(>= (+ (* 1 exclusive_0) (* -1. 1) ) 0)) (and (>= (+ (* 1 exclusive_0) (* -1. 1) ) 0)))))
(assert (forall ((modified_0 Real) (shared_0 Real) (exclusive_0 Real) (total_0 Real) (invalid_0 Real) ) (=> (and (>= (+ (* 1 exclusive_0) (* 0 1) ) 0)(>= (+ (* 1 shared_0) (* 0 1) ) 0)(>= (+ (* 1 modified_0) (* 0 1) ) 0)(>= (+ (* 1 invalid_0) (* 0 1) ) 0)(>= (+ (* 1 total_0) (* -1 modified_0) (* -1 shared_0) (* -1 exclusive_0) (* -1 invalid_0) ) 0)(>= (+ (* 1 modified_0) (* 1 shared_0) (* 1 exclusive_0) (* 1 invalid_0) (* -1 total_0) ) 0)(>= (* 1. 1)  0)(>= (+ (* 1 exclusive_0) (* -1. 1) ) 0)) (and (>= (+ (* 1 shared_0) (* 0 1) ) 0)))))
(assert (forall ((modified_0 Real) (shared_0 Real) (exclusive_0 Real) (total_0 Real) (invalid_0 Real) ) (=> (and (>= (+ (* 1 exclusive_0) (* 0 1) ) 0)(>= (+ (* 1 shared_0) (* 0 1) ) 0)(>= (+ (* 1 modified_0) (* 0 1) ) 0)(>= (+ (* 1 invalid_0) (* 0 1) ) 0)(>= (+ (* 1 total_0) (* -1 modified_0) (* -1 shared_0) (* -1 exclusive_0) (* -1 invalid_0) ) 0)(>= (+ (* 1 modified_0) (* 1 shared_0) (* 1 exclusive_0) (* 1 invalid_0) (* -1 total_0) ) 0)(>= (* 1. 1)  0)(>= (+ (* 1 exclusive_0) (* -1. 1) ) 0)) (and (>= (+ (* 1 modified_0) (* 1. 1) ) 0)))))
(assert (forall ((modified_0 Real) (shared_0 Real) (exclusive_0 Real) (total_0 Real) (invalid_0 Real) ) (=> (and (>= (+ (* 1 exclusive_0) (* 0 1) ) 0)(>= (+ (* 1 shared_0) (* 0 1) ) 0)(>= (+ (* 1 modified_0) (* 0 1) ) 0)(>= (+ (* 1 invalid_0) (* 0 1) ) 0)(>= (+ (* 1 total_0) (* -1 modified_0) (* -1 shared_0) (* -1 exclusive_0) (* -1 invalid_0) ) 0)(>= (+ (* 1 modified_0) (* 1 shared_0) (* 1 exclusive_0) (* 1 invalid_0) (* -1 total_0) ) 0)(>= (* 1. 1)  0)(>= (+ (* 1 exclusive_0) (* -1. 1) ) 0)) (and (>= (+ (* 1 invalid_0) (* 0 1) ) 0)))))
(assert (forall ((modified_0 Real) (shared_0 Real) (exclusive_0 Real) (total_0 Real) (invalid_0 Real) ) (=> (and (>= (+ (* 1 exclusive_0) (* 0 1) ) 0)(>= (+ (* 1 shared_0) (* 0 1) ) 0)(>= (+ (* 1 modified_0) (* 0 1) ) 0)(>= (+ (* 1 invalid_0) (* 0 1) ) 0)(>= (+ (* 1 total_0) (* -1 modified_0) (* -1 shared_0) (* -1 exclusive_0) (* -1 invalid_0) ) 0)(>= (+ (* 1 modified_0) (* 1 shared_0) (* 1 exclusive_0) (* 1 invalid_0) (* -1 total_0) ) 0)(>= (* 1. 1)  0)(>= (+ (* 1 exclusive_0) (* -1. 1) ) 0)) (and (>= (+ (* 1 total_0) (* -1 modified_0) (* 0 1) (* -1 shared_0) (* -1 exclusive_0) (* -1 invalid_0) ) 0)))))
(assert (forall ((modified_0 Real) (shared_0 Real) (exclusive_0 Real) (total_0 Real) (invalid_0 Real) ) (=> (and (>= (+ (* 1 exclusive_0) (* 0 1) ) 0)(>= (+ (* 1 shared_0) (* 0 1) ) 0)(>= (+ (* 1 modified_0) (* 0 1) ) 0)(>= (+ (* 1 invalid_0) (* 0 1) ) 0)(>= (+ (* 1 total_0) (* -1 modified_0) (* -1 shared_0) (* -1 exclusive_0) (* -1 invalid_0) ) 0)(>= (+ (* 1 modified_0) (* 1 shared_0) (* 1 exclusive_0) (* 1 invalid_0) (* -1 total_0) ) 0)(>= (* 1. 1)  0)(>= (+ (* 1 exclusive_0) (* -1. 1) ) 0)) (and (>= (+ (* 1 modified_0) (* 0 1) (* 1 shared_0) (* 1 exclusive_0) (* 1 invalid_0) (* -1 total_0) ) 0)))))
(assert (forall ((modified_0 Real) (shared_0 Real) (exclusive_0 Real) (total_0 Real) (invalid_0 Real) ) (=> (and (>= (+ (* 1 exclusive_0) (* 0 1) ) 0)(>= (+ (* 1 shared_0) (* 0 1) ) 0)(>= (+ (* 1 modified_0) (* 0 1) ) 0)(>= (+ (* 1 invalid_0) (* 0 1) ) 0)(>= (+ (* 1 total_0) (* -1 modified_0) (* -1 shared_0) (* -1 exclusive_0) (* -1 invalid_0) ) 0)(>= (+ (* 1 modified_0) (* 1 shared_0) (* 1 exclusive_0) (* 1 invalid_0) (* -1 total_0) ) 0)(>= (* 1. 1)  0)(>= (+ (* 1 shared_0) (* -1. 1) ) 0)) (and (>= (* 1. 1)  0)))))
(assert (forall ((modified_0 Real) (shared_0 Real) (exclusive_0 Real) (total_0 Real) (invalid_0 Real) ) (=> (and (>= (+ (* 1 exclusive_0) (* 0 1) ) 0)(>= (+ (* 1 shared_0) (* 0 1) ) 0)(>= (+ (* 1 modified_0) (* 0 1) ) 0)(>= (+ (* 1 invalid_0) (* 0 1) ) 0)(>= (+ (* 1 total_0) (* -1 modified_0) (* -1 shared_0) (* -1 exclusive_0) (* -1 invalid_0) ) 0)(>= (+ (* 1 modified_0) (* 1 shared_0) (* 1 exclusive_0) (* 1 invalid_0) (* -1 total_0) ) 0)(>= (* 1. 1)  0)(>= (+ (* 1 shared_0) (* -1. 1) ) 0)) (and (>= (* 0 1)  0)))))
(assert (forall ((modified_0 Real) (shared_0 Real) (exclusive_0 Real) (total_0 Real) (invalid_0 Real) ) (=> (and (>= (+ (* 1 exclusive_0) (* 0 1) ) 0)(>= (+ (* 1 shared_0) (* 0 1) ) 0)(>= (+ (* 1 modified_0) (* 0 1) ) 0)(>= (+ (* 1 invalid_0) (* 0 1) ) 0)(>= (+ (* 1 total_0) (* -1 modified_0) (* -1 shared_0) (* -1 exclusive_0) (* -1 invalid_0) ) 0)(>= (+ (* 1 modified_0) (* 1 shared_0) (* 1 exclusive_0) (* 1 invalid_0) (* -1 total_0) ) 0)(>= (* 1. 1)  0)(>= (+ (* 1 shared_0) (* -1. 1) ) 0)) (and (>= (* 0 1)  0)))))
(assert (forall ((modified_0 Real) (shared_0 Real) (exclusive_0 Real) (total_0 Real) (invalid_0 Real) ) (=> (and (>= (+ (* 1 exclusive_0) (* 0 1) ) 0)(>= (+ (* 1 shared_0) (* 0 1) ) 0)(>= (+ (* 1 modified_0) (* 0 1) ) 0)(>= (+ (* 1 invalid_0) (* 0 1) ) 0)(>= (+ (* 1 total_0) (* -1 modified_0) (* -1 shared_0) (* -1 exclusive_0) (* -1 invalid_0) ) 0)(>= (+ (* 1 modified_0) (* 1 shared_0) (* 1 exclusive_0) (* 1 invalid_0) (* -1 total_0) ) 0)(>= (* 1. 1)  0)(>= (+ (* 1 shared_0) (* -1. 1) ) 0)) (and (>= (+ (* _a_5_ 1) (* _a_6_ shared_0) (* _a_7_ modified_0) (* _a_8_ invalid_0) (* _a_9_ exclusive_0) ) 0)))))
(assert (forall ((modified_0 Real) (shared_0 Real) (exclusive_0 Real) (total_0 Real) (invalid_0 Real) ) (=> (and (>= (+ (* 1 exclusive_0) (* 0 1) ) 0)(>= (+ (* 1 shared_0) (* 0 1) ) 0)(>= (+ (* 1 modified_0) (* 0 1) ) 0)(>= (+ (* 1 invalid_0) (* 0 1) ) 0)(>= (+ (* 1 total_0) (* -1 modified_0) (* -1 shared_0) (* -1 exclusive_0) (* -1 invalid_0) ) 0)(>= (+ (* 1 modified_0) (* 1 shared_0) (* 1 exclusive_0) (* 1 invalid_0) (* -1 total_0) ) 0)(>= (* 1. 1)  0)(>= (+ (* 1 shared_0) (* -1. 1) ) 0)) (and (>= (+ (* 1 total_0) (* (+ -1. (* -1 _a_5_)) 1) (* (* -1 _a_6_) shared_0) (* (* -1 _a_7_) modified_0) (* (* -1 _a_8_) invalid_0) (* (* -1 _a_9_) exclusive_0) ) 0)))))
(assert (forall ((modified_0 Real) (shared_0 Real) (exclusive_0 Real) (total_0 Real) (invalid_0 Real) ) (=> (and (>= (+ (* 1 exclusive_0) (* 0 1) ) 0)(>= (+ (* 1 shared_0) (* 0 1) ) 0)(>= (+ (* 1 modified_0) (* 0 1) ) 0)(>= (+ (* 1 invalid_0) (* 0 1) ) 0)(>= (+ (* 1 total_0) (* -1 modified_0) (* -1 shared_0) (* -1 exclusive_0) (* -1 invalid_0) ) 0)(>= (+ (* 1 modified_0) (* 1 shared_0) (* 1 exclusive_0) (* 1 invalid_0) (* -1 total_0) ) 0)(>= (* 1. 1)  0)(>= (+ (* 1 shared_0) (* -1. 1) ) 0)) (and (>= (+ (* (+ 1. _a_5_) 1) (* _a_6_ shared_0) (* _a_7_ modified_0) (* _a_8_ invalid_0) (* _a_9_ exclusive_0) (* -1 total_0) ) 0)))))
(assert (forall ((modified_0 Real) (shared_0 Real) (exclusive_0 Real) (total_0 Real) (invalid_0 Real) ) (=> (and (>= (+ (* 1 exclusive_0) (* 0 1) ) 0)(>= (+ (* 1 shared_0) (* 0 1) ) 0)(>= (+ (* 1 modified_0) (* 0 1) ) 0)(>= (+ (* 1 invalid_0) (* 0 1) ) 0)(>= (+ (* 1 total_0) (* -1 modified_0) (* -1 shared_0) (* -1 exclusive_0) (* -1 invalid_0) ) 0)(>= (+ (* 1 modified_0) (* 1 shared_0) (* 1 exclusive_0) (* 1 invalid_0) (* -1 total_0) ) 0)(>= (* 1. 1)  0)(>= (+ (* 1 invalid_0) (* -1. 1) ) 0)) (and (>= (* 1. 1)  0)))))
(assert (forall ((modified_0 Real) (shared_0 Real) (exclusive_0 Real) (total_0 Real) (invalid_0 Real) ) (=> (and (>= (+ (* 1 exclusive_0) (* 0 1) ) 0)(>= (+ (* 1 shared_0) (* 0 1) ) 0)(>= (+ (* 1 modified_0) (* 0 1) ) 0)(>= (+ (* 1 invalid_0) (* 0 1) ) 0)(>= (+ (* 1 total_0) (* -1 modified_0) (* -1 shared_0) (* -1 exclusive_0) (* -1 invalid_0) ) 0)(>= (+ (* 1 modified_0) (* 1 shared_0) (* 1 exclusive_0) (* 1 invalid_0) (* -1 total_0) ) 0)(>= (* 1. 1)  0)(>= (+ (* 1 invalid_0) (* -1. 1) ) 0)) (and (>= (* 0 1)  0)))))
(assert (forall ((modified_0 Real) (shared_0 Real) (exclusive_0 Real) (total_0 Real) (invalid_0 Real) ) (=> (and (>= (+ (* 1 exclusive_0) (* 0 1) ) 0)(>= (+ (* 1 shared_0) (* 0 1) ) 0)(>= (+ (* 1 modified_0) (* 0 1) ) 0)(>= (+ (* 1 invalid_0) (* 0 1) ) 0)(>= (+ (* 1 total_0) (* -1 modified_0) (* -1 shared_0) (* -1 exclusive_0) (* -1 invalid_0) ) 0)(>= (+ (* 1 modified_0) (* 1 shared_0) (* 1 exclusive_0) (* 1 invalid_0) (* -1 total_0) ) 0)(>= (* 1. 1)  0)(>= (+ (* 1 invalid_0) (* -1. 1) ) 0)) (and (>= (* 0 1)  0)))))
(assert (forall ((modified_0 Real) (shared_0 Real) (exclusive_0 Real) (total_0 Real) (invalid_0 Real) ) (=> (and (>= (+ (* 1 exclusive_0) (* 0 1) ) 0)(>= (+ (* 1 shared_0) (* 0 1) ) 0)(>= (+ (* 1 modified_0) (* 0 1) ) 0)(>= (+ (* 1 invalid_0) (* 0 1) ) 0)(>= (+ (* 1 total_0) (* -1 modified_0) (* -1 shared_0) (* -1 exclusive_0) (* -1 invalid_0) ) 0)(>= (+ (* 1 modified_0) (* 1 shared_0) (* 1 exclusive_0) (* 1 invalid_0) (* -1 total_0) ) 0)(>= (* 1. 1)  0)(>= (+ (* 1 invalid_0) (* -1. 1) ) 0)) (and (>= (+ (* _a_10_ 1) (* _a_11_ shared_0) (* _a_12_ modified_0) (* _a_13_ invalid_0) (* _a_14_ exclusive_0) ) 0)))))
(assert (forall ((modified_0 Real) (shared_0 Real) (exclusive_0 Real) (total_0 Real) (invalid_0 Real) ) (=> (and (>= (+ (* 1 exclusive_0) (* 0 1) ) 0)(>= (+ (* 1 shared_0) (* 0 1) ) 0)(>= (+ (* 1 modified_0) (* 0 1) ) 0)(>= (+ (* 1 invalid_0) (* 0 1) ) 0)(>= (+ (* 1 total_0) (* -1 modified_0) (* -1 shared_0) (* -1 exclusive_0) (* -1 invalid_0) ) 0)(>= (+ (* 1 modified_0) (* 1 shared_0) (* 1 exclusive_0) (* 1 invalid_0) (* -1 total_0) ) 0)(>= (* 1. 1)  0)(>= (+ (* 1 invalid_0) (* -1. 1) ) 0)) (and (>= (+ (* 1 total_0) (* (+ -1. (* -1 _a_10_)) 1) (* (* -1 _a_11_) shared_0) (* (* -1 _a_12_) modified_0) (* (* -1 _a_13_) invalid_0) (* (* -1 _a_14_) exclusive_0) ) 0)))))
(assert (forall ((modified_0 Real) (shared_0 Real) (exclusive_0 Real) (total_0 Real) (invalid_0 Real) ) (=> (and (>= (+ (* 1 exclusive_0) (* 0 1) ) 0)(>= (+ (* 1 shared_0) (* 0 1) ) 0)(>= (+ (* 1 modified_0) (* 0 1) ) 0)(>= (+ (* 1 invalid_0) (* 0 1) ) 0)(>= (+ (* 1 total_0) (* -1 modified_0) (* -1 shared_0) (* -1 exclusive_0) (* -1 invalid_0) ) 0)(>= (+ (* 1 modified_0) (* 1 shared_0) (* 1 exclusive_0) (* 1 invalid_0) (* -1 total_0) ) 0)(>= (* 1. 1)  0)(>= (+ (* 1 invalid_0) (* -1. 1) ) 0)) (and (>= (+ (* (+ 1. _a_10_) 1) (* _a_11_ shared_0) (* _a_12_ modified_0) (* _a_13_ invalid_0) (* _a_14_ exclusive_0) (* -1 total_0) ) 0)))))
(check-sat)
(get-model)

